
Gurobi 7.5.2 (win64) logging started 02/13/18 23:03:07

Academic license - for non-commercial use only
Warning for adding variables: zero or small (< 1e-13) coefficients, ignored
Optimize a model with 5 rows, 7 columns and 12 nonzeros
Coefficient statistics:
  Matrix range     [1e+00, 2e+00]
  Objective range  [2e+00, 2e+00]
  Bounds range     [0e+00, 0e+00]
  RHS range        [4e+00, 8e+00]
Presolve time: 0.01s

Solved in 0 iterations and 0.01 seconds
Infeasible or unbounded model

Gurobi 7.5.2 (win64) logging started 02/14/18 16:26:52

Academic license - for non-commercial use only
Warning for adding variables: zero or small (< 1e-13) coefficients, ignored
Optimize a model with 5 rows, 7 columns and 12 nonzeros
Coefficient statistics:
  Matrix range     [1e+00, 2e+00]
  Objective range  [2e+00, 2e+00]
  Bounds range     [0e+00, 0e+00]
  RHS range        [4e+00, 8e+00]
Presolve time: 0.01s

Solved in 0 iterations and 0.01 seconds
Infeasible or unbounded model
